experiments/sat_smt/run/sat-r+/results/zoe_2_richard_2.res
solved=true
solvingTime=3151.798828125
nActions=26