experiments/sat_smt/run/sat-r+/results/zoe_2_richard_2.out
Timesteps: 1
s UNSATISFIABLE
real 0.19
user 0.02
sys 0.01
Timesteps: 2
s UNSATISFIABLE
real 0.17
user 0.05
sys 0.01
Timesteps: 3
s UNSATISFIABLE
real 0.28
user 0.09
sys 0.01
Timesteps: 4
s UNSATISFIABLE
real 0.37
user 0.17
sys 0.01
Timesteps: 5
s UNSATISFIABLE
real 0.77
user 0.61
sys 0.01
Timesteps: 6
s UNSATISFIABLE
real 1.29
user 1.08
sys 0.01
Timesteps: 7
s UNSATISFIABLE
real 2.68
user 2.38
sys 0.03
Timesteps: 8
s UNSATISFIABLE
real 6.80
user 6.12
sys 0.03
Timesteps: 9
s UNSATISFIABLE
real 6.78
user 5.96
sys 0.04
Timesteps: 10
s UNSATISFIABLE
real 12.55
user 11.66
sys 0.03
Timesteps: 11
s UNSATISFIABLE
real 20.18
user 19.15
sys 0.06
Timesteps: 12
s UNSATISFIABLE
real 18.37
user 17.34
sys 0.06
Timesteps: 13
s UNSATISFIABLE
real 19.29
user 18.12
sys 0.07
Timesteps: 14
s UNSATISFIABLE
real 16.55
user 15.41
sys 0.07
Timesteps: 15
s UNSATISFIABLE
real 21.45
user 20.79
sys 0.09
Timesteps: 16
s UNSATISFIABLE
real 21.73
user 21.08
sys 0.09
Timesteps: 17
s UNSATISFIABLE
real 23.17
user 21.73
sys 0.08
Timesteps: 18
s UNSATISFIABLE
real 29.97
user 28.88
sys 0.09
Timesteps: 19
s UNSATISFIABLE
real 44.63
user 43.82
sys 0.09
Timesteps: 20
s UNSATISFIABLE
real 90.58
user 89.54
sys 0.13
Timesteps: 21
s UNSATISFIABLE
real 178.29
user 176.86
sys 0.19
Timesteps: 22
s UNSATISFIABLE
real 269.68
user 267.85
sys 0.23
Timesteps: 23
s UNSATISFIABLE
real 405.15
user 402.69
sys 0.34
Timesteps: 24
s UNSATISFIABLE
real 814.16
user 809.98
sys 0.55
Timesteps: 25
s UNSATISFIABLE
real 1080.94
user 1075.76
sys 0.71
Timesteps: 26
s SATISFIABLE
real 81.05
user 79.83
sys 0.19
